100 66673

 663 738
453 778
350 99
902 459
952 523
634 597
494 405
620 214
4 685
93 903
919 503
6 721
288 448
618 894
146 576
783 258
424 844
890 121
608 810
457 978
741 54
202 331
212 784
6 241
624 755
376 530
891 483
447 187
835 858
106 656
651 262
811 953
401 364
96 491
388 431
959 239
452 304
849 298
809 76
979 700
901 333
416 900
726 999
504 758
454 642
291 474
534 827
193 923
980 283
150 591
880 72
759 263
779 703
973 879
763 887
515 942
393 575
316 892
76 12
599 141
270 766
225 555
530 17
113 63
251 253
233 465
841 376
791 804
714 981
83 520
125 837
175 90
69 720
47 804
884 796
256 630
727 861
30 175
281 76
924 613
994 926
237 663
248 400
368 782
495 970
25 71
586 180
718 124
490 381
494 293
314 797
606 195
375 911
639 228
937 431
25 942
334 436
355 787
116 461
48 618
